Version identifier: 22.1.1.0 | 2022-11-28 | 9160aff4d
CPXPARAM_ClockType                               1
CPXPARAM_Read_DataCheck                          1
CPXPARAM_Threads                                 1
CPXPARAM_TimeLimit                               7200
CPXPARAM_MIP_Tolerances_AbsMIPGap                0
CPXPARAM_MIP_Tolerances_MIPGap                   0
CPXPARAM_MIP_Tolerances_Integrality              0
Tried aggregator 3 times.
MIP Presolve eliminated 56168 rows and 19533 columns.
MIP Presolve modified 23228 coefficients.
Aggregator did 10126 substitutions.
Reduced MIP has 95017 rows, 40121 columns, and 296083 nonzeros.
Reduced MIP has 40120 binaries, 1 generals, 0 SOSs, and 0 indicators.
Presolve time = 0.98 sec. (481.31 ticks)
Found incumbent of value -265227.000000 after 1.49 sec. (755.93 ticks)
Probing fixed 386 vars, tightened 0 bounds.
Probing changed sense of 321 constraints.
Probing time = 0.82 sec. (199.30 ticks)
Tried aggregator 2 times.
Detecting symmetries...
MIP Presolve eliminated 3267 rows and 1001 columns.
MIP Presolve modified 556 coefficients.
Aggregator did 24 substitutions.
Reduced MIP has 91726 rows, 39096 columns, and 286110 nonzeros.
Reduced MIP has 39096 binaries, 0 generals, 0 SOSs, and 0 indicators.
Presolve time = 1.24 sec. (570.71 ticks)
Probing time = 0.05 sec. (10.59 ticks)
Clique table members: 175488.
MIP emphasis: balance optimality and feasibility.
MIP search method: dynamic search.
Parallel mode: none, using 1 thread.
Root relaxation solution time = 339.28 sec. (116185.89 ticks)

        Nodes                                         Cuts/
   Node  Left     Objective  IInf  Best Integer    Best Bound    ItCnt     Gap

*     0+    0                         1466.0000   132430.0000              --- 
      0     0    60333.3333 25365     1466.0000    60333.3333   158934     --- 
      0     0    58511.5330 23497     1466.0000  Cliques: 658   166214     --- 
      0     0    57118.0170 22853     1466.0000 Cliques: 2177   171468     --- 
      0     0    53321.5644 22118     1466.0000    Cuts: 8288   326110     --- 
*     0+    0                         1806.0000    53321.5644              --- 
      0     0        cutoff           1806.0000    53321.5644   326110     --- 
      0     0    47895.3223 19229     1806.0000    Cuts: 8944   499019     --- 
      0     0    47108.9035 17880     1806.0000    Cuts: 7885   682900     --- 
      0     0    46720.7684 16724     1806.0000    Cuts: 6383   870271     --- 
*     0+    0                         2465.0000    46720.7684              --- 
*     0+    0                         3331.0000    46720.7684              --- 
*     0+    0                         3871.0000    46720.7684              --- 
*     0+    0                         4044.0000    46720.7684              --- 
      0     0        cutoff           4044.0000    46720.7684   870271     --- 
      0     0    46392.7493 15728     4044.0000    Cuts: 5268  1043623     --- 
      0     0    46243.8403 15105     4044.0000    Cuts: 3954  1246368     --- 
      0     0    46204.9265 15270     4044.0000    Cuts: 3522  1421082     --- 
*     0+    0                         4956.0000    46204.9265           832.30%
      0     0        cutoff           4956.0000    46204.9265  1421082  832.30%

Clique cuts applied:  7314
Implied bound cuts applied:  3336
Flow cuts applied:  6
Mixed integer rounding cuts applied:  3
Zero-half cuts applied:  9241
Lift and project cuts applied:  3
Gomory fractional cuts applied:  17

Root node processing (before b&c):
  Real time             = 7200.12 sec. (3130348.23 ticks)
Sequential b&c:
  Real time             =    0.00 sec. (0.00 ticks)
                          ------------
Total (root+branch&cut) = 7200.12 sec. (3130348.23 ticks)
Solution is feasible.

---------------------
@@@ MIP_time_limit_feasible
>>> Benchmark mc2024_track1_147.cnf k 10 OPT 4956 TimeCost 7407.831965923309 TimeSolve 7225.610754966736 TimeRead 0.024704694747924805 TimeTrans 182.19650626182556
